# Objective value = 18.1
split_value_node_1 0.375
node_1_applies_split 1
node_1_splits_on_feature_0 0
node_1_splits_on_feature_1 0
node_1_splits_on_feature_2 0
node_1_splits_on_feature_3 1
split_value_node_2 0
node_2_applies_split 0
node_2_splits_on_feature_0 0
node_2_splits_on_feature_1 0
node_2_splits_on_feature_2 0
node_2_splits_on_feature_3 0
split_value_node_3 7.0833333333333337e-01
node_3_applies_split 1
node_3_splits_on_feature_0 0
node_3_splits_on_feature_1 0
node_3_splits_on_feature_2 0
node_3_splits_on_feature_3 1
node_4_contains_any_point 0
x0_is_in_node_4 0
x1_is_in_node_4 0
x2_is_in_node_4 0
x3_is_in_node_4 0
x4_is_in_node_4 0
x5_is_in_node_4 0
x6_is_in_node_4 0
x7_is_in_node_4 0
x8_is_in_node_4 0
x9_is_in_node_4 0
x10_is_in_node_4 0
x11_is_in_node_4 0
x12_is_in_node_4 0
x13_is_in_node_4 0
x14_is_in_node_4 0
x15_is_in_node_4 0
x16_is_in_node_4 0
x17_is_in_node_4 0
x18_is_in_node_4 0
x19_is_in_node_4 0
x20_is_in_node_4 0
x21_is_in_node_4 0
x22_is_in_node_4 0
x23_is_in_node_4 0
x24_is_in_node_4 0
x25_is_in_node_4 0
x26_is_in_node_4 0
x27_is_in_node_4 0
x28_is_in_node_4 0
x29_is_in_node_4 0
x30_is_in_node_4 0
x31_is_in_node_4 0
x32_is_in_node_4 0
x33_is_in_node_4 0
x34_is_in_node_4 0
x35_is_in_node_4 0
x36_is_in_node_4 0
x37_is_in_node_4 0
x38_is_in_node_4 0
x39_is_in_node_4 0
x40_is_in_node_4 0
x41_is_in_node_4 0
x42_is_in_node_4 0
x43_is_in_node_4 0
x44_is_in_node_4 0
x45_is_in_node_4 0
x46_is_in_node_4 0
x47_is_in_node_4 0
x48_is_in_node_4 0
x49_is_in_node_4 0
x50_is_in_node_4 0
x51_is_in_node_4 0
x52_is_in_node_4 0
x53_is_in_node_4 0
x54_is_in_node_4 0
x55_is_in_node_4 0
x56_is_in_node_4 0
x57_is_in_node_4 0
x58_is_in_node_4 0
x59_is_in_node_4 0
x60_is_in_node_4 0
x61_is_in_node_4 0
x62_is_in_node_4 0
x63_is_in_node_4 0
x64_is_in_node_4 0
x65_is_in_node_4 0
x66_is_in_node_4 0
x67_is_in_node_4 0
x68_is_in_node_4 0
x69_is_in_node_4 0
x70_is_in_node_4 0
x71_is_in_node_4 0
x72_is_in_node_4 0
x73_is_in_node_4 0
x74_is_in_node_4 0
x75_is_in_node_4 0
x76_is_in_node_4 0
x77_is_in_node_4 0
x78_is_in_node_4 0
x79_is_in_node_4 0
x80_is_in_node_4 0
x81_is_in_node_4 0
x82_is_in_node_4 0
x83_is_in_node_4 0
x84_is_in_node_4 0
x85_is_in_node_4 0
x86_is_in_node_4 0
x87_is_in_node_4 0
x88_is_in_node_4 0
x89_is_in_node_4 0
x90_is_in_node_4 0
x91_is_in_node_4 0
x92_is_in_node_4 0
x93_is_in_node_4 0
x94_is_in_node_4 0
x95_is_in_node_4 0
x96_is_in_node_4 0
x97_is_in_node_4 0
x98_is_in_node_4 0
x99_is_in_node_4 0
x100_is_in_node_4 0
x101_is_in_node_4 0
x102_is_in_node_4 0
x103_is_in_node_4 0
x104_is_in_node_4 0
x105_is_in_node_4 0
x106_is_in_node_4 0
x107_is_in_node_4 0
x108_is_in_node_4 0
x109_is_in_node_4 0
x110_is_in_node_4 0
x111_is_in_node_4 0
x112_is_in_node_4 0
x113_is_in_node_4 0
x114_is_in_node_4 0
x115_is_in_node_4 0
x116_is_in_node_4 0
x117_is_in_node_4 0
x118_is_in_node_4 0
x119_is_in_node_4 0
x120_is_in_node_4 0
x121_is_in_node_4 0
x122_is_in_node_4 0
x123_is_in_node_4 0
x124_is_in_node_4 0
x125_is_in_node_4 0
x126_is_in_node_4 0
x127_is_in_node_4 0
x128_is_in_node_4 0
x129_is_in_node_4 0
x130_is_in_node_4 0
x131_is_in_node_4 0
x132_is_in_node_4 0
x133_is_in_node_4 0
x134_is_in_node_4 0
x135_is_in_node_4 0
x136_is_in_node_4 0
x137_is_in_node_4 0
x138_is_in_node_4 0
x139_is_in_node_4 0
x140_is_in_node_4 0
x141_is_in_node_4 0
x142_is_in_node_4 0
x143_is_in_node_4 0
x144_is_in_node_4 0
x145_is_in_node_4 0
x146_is_in_node_4 0
x147_is_in_node_4 0
x148_is_in_node_4 0
x149_is_in_node_4 0
total_number_of_points_in_4 0
number_of_points_of_label_0_in_node_4 0
number_of_points_of_label_1_in_node_4 0
number_of_points_of_label_2_in_node_4 0
label_0_is_assigned_to_node_4 0
label_1_is_assigned_to_node_4 0
label_2_is_assigned_to_node_4 0
missclassification_error_in_node_4 0
node_5_contains_any_point 1
x0_is_in_node_5 1
x1_is_in_node_5 1
x2_is_in_node_5 1
x3_is_in_node_5 1
x4_is_in_node_5 1
x5_is_in_node_5 1
x6_is_in_node_5 1
x7_is_in_node_5 1
x8_is_in_node_5 1
x9_is_in_node_5 1
x10_is_in_node_5 1
x11_is_in_node_5 1
x12_is_in_node_5 1
x13_is_in_node_5 1
x14_is_in_node_5 1
x15_is_in_node_5 1
x16_is_in_node_5 1
x17_is_in_node_5 1
x18_is_in_node_5 1
x19_is_in_node_5 1
x20_is_in_node_5 1
x21_is_in_node_5 1
x22_is_in_node_5 1
x23_is_in_node_5 1
x24_is_in_node_5 1
x25_is_in_node_5 1
x26_is_in_node_5 1
x27_is_in_node_5 1
x28_is_in_node_5 1
x29_is_in_node_5 1
x30_is_in_node_5 1
x31_is_in_node_5 1
x32_is_in_node_5 1
x33_is_in_node_5 1
x34_is_in_node_5 1
x35_is_in_node_5 1
x36_is_in_node_5 1
x37_is_in_node_5 1
x38_is_in_node_5 1
x39_is_in_node_5 1
x40_is_in_node_5 1
x41_is_in_node_5 1
x42_is_in_node_5 1
x43_is_in_node_5 1
x44_is_in_node_5 1
x45_is_in_node_5 1
x46_is_in_node_5 1
x47_is_in_node_5 1
x48_is_in_node_5 1
x49_is_in_node_5 1
x50_is_in_node_5 0
x51_is_in_node_5 0
x52_is_in_node_5 0
x53_is_in_node_5 0
x54_is_in_node_5 0
x55_is_in_node_5 0
x56_is_in_node_5 0
x57_is_in_node_5 0
x58_is_in_node_5 0
x59_is_in_node_5 0
x60_is_in_node_5 0
x61_is_in_node_5 0
x62_is_in_node_5 0
x63_is_in_node_5 0
x64_is_in_node_5 0
x65_is_in_node_5 0
x66_is_in_node_5 0
x67_is_in_node_5 0
x68_is_in_node_5 0
x69_is_in_node_5 0
x70_is_in_node_5 0
x71_is_in_node_5 0
x72_is_in_node_5 0
x73_is_in_node_5 0
x74_is_in_node_5 0
x75_is_in_node_5 0
x76_is_in_node_5 0
x77_is_in_node_5 0
x78_is_in_node_5 0
x79_is_in_node_5 0
x80_is_in_node_5 0
x81_is_in_node_5 0
x82_is_in_node_5 0
x83_is_in_node_5 0
x84_is_in_node_5 0
x85_is_in_node_5 0
x86_is_in_node_5 0
x87_is_in_node_5 0
x88_is_in_node_5 0
x89_is_in_node_5 0
x90_is_in_node_5 0
x91_is_in_node_5 0
x92_is_in_node_5 0
x93_is_in_node_5 0
x94_is_in_node_5 0
x95_is_in_node_5 0
x96_is_in_node_5 0
x97_is_in_node_5 0
x98_is_in_node_5 0
x99_is_in_node_5 0
x100_is_in_node_5 0
x101_is_in_node_5 0
x102_is_in_node_5 0
x103_is_in_node_5 0
x104_is_in_node_5 0
x105_is_in_node_5 0
x106_is_in_node_5 0
x107_is_in_node_5 0
x108_is_in_node_5 0
x109_is_in_node_5 0
x110_is_in_node_5 0
x111_is_in_node_5 0
x112_is_in_node_5 0
x113_is_in_node_5 0
x114_is_in_node_5 0
x115_is_in_node_5 0
x116_is_in_node_5 0
x117_is_in_node_5 0
x118_is_in_node_5 0
x119_is_in_node_5 0
x120_is_in_node_5 0
x121_is_in_node_5 0
x122_is_in_node_5 0
x123_is_in_node_5 0
x124_is_in_node_5 0
x125_is_in_node_5 0
x126_is_in_node_5 0
x127_is_in_node_5 0
x128_is_in_node_5 0
x129_is_in_node_5 0
x130_is_in_node_5 0
x131_is_in_node_5 0
x132_is_in_node_5 0
x133_is_in_node_5 0
x134_is_in_node_5 0
x135_is_in_node_5 0
x136_is_in_node_5 0
x137_is_in_node_5 0
x138_is_in_node_5 0
x139_is_in_node_5 0
x140_is_in_node_5 0
x141_is_in_node_5 0
x142_is_in_node_5 0
x143_is_in_node_5 0
x144_is_in_node_5 0
x145_is_in_node_5 0
x146_is_in_node_5 0
x147_is_in_node_5 0
x148_is_in_node_5 0
x149_is_in_node_5 0
total_number_of_points_in_5 50
number_of_points_of_label_0_in_node_5 50
number_of_points_of_label_1_in_node_5 0
number_of_points_of_label_2_in_node_5 0
label_0_is_assigned_to_node_5 1
label_1_is_assigned_to_node_5 0
label_2_is_assigned_to_node_5 0
missclassification_error_in_node_5 0
node_6_contains_any_point 1
x0_is_in_node_6 0
x1_is_in_node_6 0
x2_is_in_node_6 0
x3_is_in_node_6 0
x4_is_in_node_6 0
x5_is_in_node_6 0
x6_is_in_node_6 0
x7_is_in_node_6 0
x8_is_in_node_6 0
x9_is_in_node_6 0
x10_is_in_node_6 0
x11_is_in_node_6 0
x12_is_in_node_6 0
x13_is_in_node_6 0
x14_is_in_node_6 0
x15_is_in_node_6 0
x16_is_in_node_6 0
x17_is_in_node_6 0
x18_is_in_node_6 0
x19_is_in_node_6 0
x20_is_in_node_6 0
x21_is_in_node_6 0
x22_is_in_node_6 0
x23_is_in_node_6 0
x24_is_in_node_6 0
x25_is_in_node_6 0
x26_is_in_node_6 0
x27_is_in_node_6 0
x28_is_in_node_6 0
x29_is_in_node_6 0
x30_is_in_node_6 0
x31_is_in_node_6 0
x32_is_in_node_6 0
x33_is_in_node_6 0
x34_is_in_node_6 0
x35_is_in_node_6 0
x36_is_in_node_6 0
x37_is_in_node_6 0
x38_is_in_node_6 0
x39_is_in_node_6 0
x40_is_in_node_6 0
x41_is_in_node_6 0
x42_is_in_node_6 0
x43_is_in_node_6 0
x44_is_in_node_6 0
x45_is_in_node_6 0
x46_is_in_node_6 0
x47_is_in_node_6 0
x48_is_in_node_6 0
x49_is_in_node_6 0
x50_is_in_node_6 1
x51_is_in_node_6 1
x52_is_in_node_6 1
x53_is_in_node_6 1
x54_is_in_node_6 1
x55_is_in_node_6 1
x56_is_in_node_6 1
x57_is_in_node_6 1
x58_is_in_node_6 1
x59_is_in_node_6 1
x60_is_in_node_6 1
x61_is_in_node_6 1
x62_is_in_node_6 1
x63_is_in_node_6 1
x64_is_in_node_6 1
x65_is_in_node_6 1
x66_is_in_node_6 1
x67_is_in_node_6 1
x68_is_in_node_6 1
x69_is_in_node_6 1
x70_is_in_node_6 0
x71_is_in_node_6 1
x72_is_in_node_6 1
x73_is_in_node_6 1
x74_is_in_node_6 1
x75_is_in_node_6 1
x76_is_in_node_6 1
x77_is_in_node_6 1
x78_is_in_node_6 1
x79_is_in_node_6 1
x80_is_in_node_6 1
x81_is_in_node_6 1
x82_is_in_node_6 1
x83_is_in_node_6 1
x84_is_in_node_6 1
x85_is_in_node_6 1
x86_is_in_node_6 1
x87_is_in_node_6 1
x88_is_in_node_6 1
x89_is_in_node_6 1
x90_is_in_node_6 1
x91_is_in_node_6 1
x92_is_in_node_6 1
x93_is_in_node_6 1
x94_is_in_node_6 1
x95_is_in_node_6 1
x96_is_in_node_6 1
x97_is_in_node_6 1
x98_is_in_node_6 1
x99_is_in_node_6 1
x100_is_in_node_6 0
x101_is_in_node_6 0
x102_is_in_node_6 0
x103_is_in_node_6 0
x104_is_in_node_6 0
x105_is_in_node_6 0
x106_is_in_node_6 1
x107_is_in_node_6 0
x108_is_in_node_6 0
x109_is_in_node_6 0
x110_is_in_node_6 0
x111_is_in_node_6 0
x112_is_in_node_6 0
x113_is_in_node_6 0
x114_is_in_node_6 0
x115_is_in_node_6 0
x116_is_in_node_6 0
x117_is_in_node_6 0
x118_is_in_node_6 0
x119_is_in_node_6 1
x120_is_in_node_6 0
x121_is_in_node_6 0
x122_is_in_node_6 0
x123_is_in_node_6 0
x124_is_in_node_6 0
x125_is_in_node_6 0
x126_is_in_node_6 0
x127_is_in_node_6 0
x128_is_in_node_6 0
x129_is_in_node_6 1
x130_is_in_node_6 0
x131_is_in_node_6 0
x132_is_in_node_6 0
x133_is_in_node_6 1
x134_is_in_node_6 1
x135_is_in_node_6 0
x136_is_in_node_6 0
x137_is_in_node_6 0
x138_is_in_node_6 0
x139_is_in_node_6 0
x140_is_in_node_6 0
x141_is_in_node_6 0
x142_is_in_node_6 0
x143_is_in_node_6 0
x144_is_in_node_6 0
x145_is_in_node_6 0
x146_is_in_node_6 0
x147_is_in_node_6 0
x148_is_in_node_6 0
x149_is_in_node_6 0
total_number_of_points_in_6 54
number_of_points_of_label_0_in_node_6 0
number_of_points_of_label_1_in_node_6 49
number_of_points_of_label_2_in_node_6 5
label_0_is_assigned_to_node_6 0
label_1_is_assigned_to_node_6 1
label_2_is_assigned_to_node_6 0
missclassification_error_in_node_6 5
node_7_contains_any_point 1
x0_is_in_node_7 0
x1_is_in_node_7 0
x2_is_in_node_7 0
x3_is_in_node_7 0
x4_is_in_node_7 0
x5_is_in_node_7 0
x6_is_in_node_7 0
x7_is_in_node_7 0
x8_is_in_node_7 0
x9_is_in_node_7 0
x10_is_in_node_7 0
x11_is_in_node_7 0
x12_is_in_node_7 0
x13_is_in_node_7 0
x14_is_in_node_7 0
x15_is_in_node_7 0
x16_is_in_node_7 0
x17_is_in_node_7 0
x18_is_in_node_7 0
x19_is_in_node_7 0
x20_is_in_node_7 0
x21_is_in_node_7 0
x22_is_in_node_7 0
x23_is_in_node_7 0
x24_is_in_node_7 0
x25_is_in_node_7 0
x26_is_in_node_7 0
x27_is_in_node_7 0
x28_is_in_node_7 0
x29_is_in_node_7 0
x30_is_in_node_7 0
x31_is_in_node_7 0
x32_is_in_node_7 0
x33_is_in_node_7 0
x34_is_in_node_7 0
x35_is_in_node_7 0
x36_is_in_node_7 0
x37_is_in_node_7 0
x38_is_in_node_7 0
x39_is_in_node_7 0
x40_is_in_node_7 0
x41_is_in_node_7 0
x42_is_in_node_7 0
x43_is_in_node_7 0
x44_is_in_node_7 0
x45_is_in_node_7 0
x46_is_in_node_7 0
x47_is_in_node_7 0
x48_is_in_node_7 0
x49_is_in_node_7 0
x50_is_in_node_7 0
x51_is_in_node_7 0
x52_is_in_node_7 0
x53_is_in_node_7 0
x54_is_in_node_7 0
x55_is_in_node_7 0
x56_is_in_node_7 0
x57_is_in_node_7 0
x58_is_in_node_7 0
x59_is_in_node_7 0
x60_is_in_node_7 0
x61_is_in_node_7 0
x62_is_in_node_7 0
x63_is_in_node_7 0
x64_is_in_node_7 0
x65_is_in_node_7 0
x66_is_in_node_7 0
x67_is_in_node_7 0
x68_is_in_node_7 0
x69_is_in_node_7 0
x70_is_in_node_7 1
x71_is_in_node_7 0
x72_is_in_node_7 0
x73_is_in_node_7 0
x74_is_in_node_7 0
x75_is_in_node_7 0
x76_is_in_node_7 0
x77_is_in_node_7 0
x78_is_in_node_7 0
x79_is_in_node_7 0
x80_is_in_node_7 0
x81_is_in_node_7 0
x82_is_in_node_7 0
x83_is_in_node_7 0
x84_is_in_node_7 0
x85_is_in_node_7 0
x86_is_in_node_7 0
x87_is_in_node_7 0
x88_is_in_node_7 0
x89_is_in_node_7 0
x90_is_in_node_7 0
x91_is_in_node_7 0
x92_is_in_node_7 0
x93_is_in_node_7 0
x94_is_in_node_7 0
x95_is_in_node_7 0
x96_is_in_node_7 0
x97_is_in_node_7 0
x98_is_in_node_7 0
x99_is_in_node_7 0
x100_is_in_node_7 1
x101_is_in_node_7 1
x102_is_in_node_7 1
x103_is_in_node_7 1
x104_is_in_node_7 1
x105_is_in_node_7 1
x106_is_in_node_7 0
x107_is_in_node_7 1
x108_is_in_node_7 1
x109_is_in_node_7 1
x110_is_in_node_7 1
x111_is_in_node_7 1
x112_is_in_node_7 1
x113_is_in_node_7 1
x114_is_in_node_7 1
x115_is_in_node_7 1
x116_is_in_node_7 1
x117_is_in_node_7 1
x118_is_in_node_7 1
x119_is_in_node_7 0
x120_is_in_node_7 1
x121_is_in_node_7 1
x122_is_in_node_7 1
x123_is_in_node_7 1
x124_is_in_node_7 1
x125_is_in_node_7 1
x126_is_in_node_7 1
x127_is_in_node_7 1
x128_is_in_node_7 1
x129_is_in_node_7 0
x130_is_in_node_7 1
x131_is_in_node_7 1
x132_is_in_node_7 1
x133_is_in_node_7 0
x134_is_in_node_7 0
x135_is_in_node_7 1
x136_is_in_node_7 1
x137_is_in_node_7 1
x138_is_in_node_7 1
x139_is_in_node_7 1
x140_is_in_node_7 1
x141_is_in_node_7 1
x142_is_in_node_7 1
x143_is_in_node_7 1
x144_is_in_node_7 1
x145_is_in_node_7 1
x146_is_in_node_7 1
x147_is_in_node_7 1
x148_is_in_node_7 1
x149_is_in_node_7 1
total_number_of_points_in_7 46
number_of_points_of_label_0_in_node_7 0
number_of_points_of_label_1_in_node_7 1
number_of_points_of_label_2_in_node_7 45
label_0_is_assigned_to_node_7 0
label_1_is_assigned_to_node_7 0
label_2_is_assigned_to_node_7 1
missclassification_error_in_node_7 1
